c 
p cnf 122 196
8 9 21 0
8 9 -21 0
19 -14 -4 0
15 -11 2 0
3 12 -5 0
-18 13 22 0
-18 13 -22 0
17 -20 23 0
17 -20 -23 0
-8 13 24 0
-24 18 -19 0
-15 -7 25 0
-25 10 14 0
-5 -18 26 0
-26 -7 17 0
-12 -16 27 0
-27 3 7 0
20 -1 28 0
-28 -11 29 0
-29 -14 10 0
-4 16 30 0
-30 -8 31 0
-31 2 -11 0
-5 17 32 0
-5 17 -32 0
-5 19 33 0
-33 15 6 0
5 -16 34 0
-34 -3 -7 0
-3 -11 35 0
-35 13 36 0
-36 19 -10 0
-13 9 37 0
-37 16 -20 0
-2 38 39 0
-2 38 -39 0
-2 -38 39 0
-2 -38 -39 0
13 -11 -6 0
-7 40 41 0
-7 40 -41 0
-7 -40 41 0
-7 -40 -41 0
15 -20 42 0
15 -20 -42 0
11 2 43 0
-43 19 -6 0
-13 18 44 0
-13 18 -44 0
-9 16 45 0
-45 -6 13 0
-19 -3 12 0
-15 12 46 0
-15 12 -46 0
1 -8 47 0
-47 5 48 0
-48 -19 -4 0
15 49 50 0
15 49 -50 0
15 -49 50 0
15 -49 -50 0
-4 10 51 0
-4 10 -51 0
19 -9 52 0
-52 1 53 0
-53 7 6 0
-20 2 54 0
-54 -18 13 0
-4 -15 55 0
-55 -9 56 0
-56 -20 -13 0
-6 15 57 0
-57 -12 58 0
-58 7 -16 0
-9 18 59 0
-59 10 12 0
-16 -13 60 0
-16 -13 -60 0
1 61 62 0
1 61 -62 0
1 -61 62 0
1 -61 -62 0
4 2 -17 0
-2 -17 63 0
-2 -17 -63 0
16 14 64 0
-64 8 65 0
-65 20 7 0
-2 66 67 0
-2 66 -67 0
-2 -66 67 0
-2 -66 -67 0
-19 68 69 0
-19 68 -69 0
-19 -68 69 0
-19 -68 -69 0
-20 -2 70 0
-70 8 71 0
-71 -17 -12 0
-16 -1 72 0
-72 -8 73 0
-73 3 17 0
1 -18 74 0
-74 20 75 0
-75 6 -17 0
-16 19 76 0
-16 19 -76 0
3 -16 77 0
3 -16 -77 0
12 -16 78 0
-78 18 14 0
-1 79 80 0
-1 79 -80 0
-1 -79 80 0
-1 -79 -80 0
6 16 81 0
-81 -11 10 0
-3 -9 82 0
-3 -9 -82 0
11 83 84 0
11 83 -84 0
11 -83 84 0
11 -83 -84 0
16 -6 85 0
16 -6 -85 0
-20 -1 86 0
-86 18 10 0
-15 -19 87 0
-87 10 88 0
-88 13 -9 0
-2 3 89 0
-2 3 -89 0
2 90 91 0
2 90 -91 0
2 -90 91 0
2 -90 -91 0
-5 -20 92 0
-5 -20 -92 0
-12 13 93 0
-93 -11 94 0
-94 19 -14 0
13 -12 95 0
-95 -20 6 0
-16 11 96 0
-16 11 -96 0
-7 97 98 0
-7 97 -98 0
-7 -97 98 0
-7 -97 -98 0
-19 13 99 0
-19 13 -99 0
5 4 100 0
-100 -18 101 0
-101 6 -9 0
-19 12 102 0
-102 -20 15 0
6 103 104 0
6 103 -104 0
6 -103 104 0
6 -103 -104 0
-7 105 106 0
-7 105 -106 0
-7 -105 106 0
-7 -105 -106 0
-17 7 13 0
-14 20 107 0
-14 20 -107 0
-10 -13 108 0
-10 -13 -108 0
14 -15 109 0
-109 19 -17 0
-8 6 110 0
-110 -1 111 0
-111 17 14 0
8 -13 -20 0
-9 3 18 0
-11 112 113 0
-11 112 -113 0
-11 -112 113 0
-11 -112 -113 0
4 10 114 0
4 10 -114 0
-10 -9 115 0
-115 14 116 0
-116 -5 12 0
8 -15 117 0
8 -15 -117 0
-1 12 118 0
-118 13 119 0
-119 -19 6 0
20 14 120 0
-120 6 -3 0
9 121 122 0
9 121 -122 0
9 -121 122 0
9 -121 -122 0
